
Gurobi 6.5.2 (linux64) logging started Sun Sep 18 18:47:41 2016


Gurobi 6.5.2 (linux64) logging started Sun Sep 18 18:47:41 2016

Optimize a model with 201 rows, 2575 columns and 6347 nonzeros
Coefficient statistics:
  Matrix range    [1e+00, 2e+00]
  Objective range [1e+00, 1e+02]
  Bounds range    [1e+00, 1e+00]
  RHS range       [1e+00, 1e+00]
Presolve removed 47 rows and 1 columns
Presolve time: 0.01s
Presolved: 154 rows, 2574 columns, 5745 nonzeros
Variable types: 0 continuous, 2574 integer (2574 binary)

Root relaxation: objective 9.615000e+02, 117 iterations, 0.00 seconds

    Nodes    |    Current Node    |     Objective Bounds      |     Work
 Expl Unexpl |  Obj  Depth IntInf | Incumbent    BestBd   Gap | It/Node Time

     0     0  961.50000    0   34          -  961.50000      -     -    0s
     0     0  999.50000    0    6          -  999.50000      -     -    0s
     0     0 1000.50000    0    6          - 1000.50000      -     -    0s
     0     0 1001.00000    0   12          - 1001.00000      -     -    0s
     0     0 1001.00000    0    8          - 1001.00000      -     -    0s
     0     2 1001.00000    0    8          - 1001.00000      -     -    0s
H 1110   923                    5658.0000000 1003.00000  82.3%   3.9    0s
H 2852  1750                    1288.0000000 1007.50000  21.8%   4.6    3s
* 3020  1781             168    1286.0000000 1007.66667  21.6%   4.7    3s
* 4153  1032              40    1046.0000000 1008.00000  3.63%   4.9    4s
  4734  1306 1030.62500   34   25 1046.00000 1010.00000  3.44%   4.8    5s
* 5268   728              42    1028.0000000 1010.50000  1.70%   4.7    5s
 10332  1918     cutoff   47      1028.00000 1020.00000  0.78%   4.7   10s

Cutting planes:
  Gomory: 29
  Cover: 51
  Flow cover: 6
  Zero half: 7
  Lazy constraints: 1124

Explored 10576 nodes (50008 simplex iterations) in 10.06 seconds
Thread count was 8 (of 8 available processors)

Time limit reached
Best objective 1.028000000000e+03, best bound 1.020000000000e+03, gap 0.7782%
